
Gurobi 9.5.2 (mac64[arm]) logging started Fri Apr 28 12:58:35 2023

Set parameter LogFile to value "Java/output/pure_mip_2_machine/scenario_seed_0_nJob_20_machineCount_2/mip_increment_2/log.txt"
Gurobi Optimizer version 9.5.2 build v9.5.2rc0 (mac64[arm])
Thread count: 8 physical cores, 8 logical processors, using up to 8 threads
Optimize a model with 718 rows, 6426 columns and 49778 nonzeros
Model fingerprint: 0x2f6ac814
Variable types: 0 continuous, 6426 integer (6426 binary)
Coefficient statistics:
  Matrix range     [1e+00, 1e+02]
  Objective range  [1e+00, 1e+06]
  Bounds range     [1e+00, 1e+00]
  RHS range        [1e+00, 1e+00]
Presolve removed 114 rows and 1861 columns
Presolve time: 0.05s
Presolved: 604 rows, 4565 columns, 35235 nonzeros
Variable types: 0 continuous, 4565 integer (4565 binary)

Root relaxation: objective 3.972092e+05, 2930 iterations, 0.09 seconds (0.16 work units)

    Nodes    |    Current Node    |     Objective Bounds      |     Work
 Expl Unexpl |  Obj  Depth IntInf | Incumbent    BestBd   Gap | It/Node Time

     0     0 397209.247    0  201          - 397209.247      -     -    0s
     0     0 412192.069    0  281          - 412192.069      -     -    0s
     0     0 418408.371    0  271          - 418408.371      -     -    0s
     0     0 418415.382    0  272          - 418415.382      -     -    0s
     0     0 418421.704    0  271          - 418421.704      -     -    0s
     0     0 418422.812    0  271          - 418422.812      -     -    0s
     0     0 437455.832    0  293          - 437455.832      -     -    0s
H    0     0                    1090322.0000 437455.832  59.9%     -    0s
H    0     0                    1054292.0000 437455.832  58.5%     -    0s
     0     0 438051.001    0  285 1054292.00 438051.001  58.5%     -    0s
     0     0 438101.889    0  292 1054292.00 438101.889  58.4%     -    0s
     0     0 438101.964    0  289 1054292.00 438101.964  58.4%     -    0s
H    0     0                    627869.00000 446341.033  28.9%     -    1s
H    0     0                    616356.00000 446341.033  27.6%     -    1s
     0     0 446341.033    0  280 616356.000 446341.033  27.6%     -    1s
H    0     0                    609788.00000 446341.033  26.8%     -    1s
     0     0 448630.522    0  325 609788.000 448630.522  26.4%     -    1s
     0     0 448699.624    0  329 609788.000 448699.624  26.4%     -    1s
     0     0 448706.685    0  332 609788.000 448706.685  26.4%     -    1s
     0     0 454578.619    0  339 609788.000 454578.619  25.5%     -    1s
H    0     0                    599532.00000 454578.619  24.2%     -    1s
H    0     0                    598298.00000 454578.619  24.0%     -    1s
     0     0 456273.975    0  369 598298.000 456273.975  23.7%     -    1s
     0     0 456413.640    0  353 598298.000 456413.640  23.7%     -    1s
     0     0 456455.274    0  353 598298.000 456455.274  23.7%     -    1s
     0     0 456479.900    0  364 598298.000 456479.900  23.7%     -    1s
     0     0 459272.899    0  366 598298.000 459272.899  23.2%     -    1s
     0     0 460044.704    0  338 598298.000 460044.704  23.1%     -    1s
     0     0 460151.620    0  346 598298.000 460151.620  23.1%     -    2s
     0     0 460163.689    0  354 598298.000 460163.689  23.1%     -    2s
     0     0 462817.225    0  356 598298.000 462817.225  22.6%     -    2s
H    0     0                    512474.00000 462817.225  9.69%     -    2s
H    0     0                    502492.00000 462817.225  7.90%     -    2s
     0     0 462952.365    0  349 502492.000 462952.365  7.87%     -    2s
     0     0 462988.421    0  361 502492.000 462988.421  7.86%     -    2s
     0     0 463922.647    0  347 502492.000 463922.647  7.68%     -    2s
H    0     0                    501319.00000 463922.647  7.46%     -    2s
     0     0 464150.765    0  373 501319.000 464150.765  7.41%     -    2s
     0     0 464158.712    0  360 501319.000 464158.712  7.41%     -    2s
     0     0 465669.211    0  369 501319.000 465669.211  7.11%     -    2s
     0     0 465791.182    0  374 501319.000 465791.182  7.09%     -    2s
     0     0 465797.514    0  353 501319.000 465797.514  7.09%     -    2s
     0     0 466537.800    0  364 501319.000 466537.800  6.94%     -    2s
     0     0 466537.800    0  195 501319.000 466537.800  6.94%     -    2s
     0     0 466537.800    0  267 501319.000 466537.800  6.94%     -    2s
     0     0 466537.800    0  300 501319.000 466537.800  6.94%     -    3s
     0     0 466537.800    0  326 501319.000 466537.800  6.94%     -    3s
     0     0 466659.147    0  345 501319.000 466659.147  6.91%     -    3s
     0     0 467687.309    0  356 501319.000 467687.309  6.71%     -    3s
     0     0 467782.437    0  356 501319.000 467782.437  6.69%     -    3s
     0     0 467886.276    0  365 501319.000 467886.276  6.67%     -    3s
     0     0 467918.595    0  358 501319.000 467918.595  6.66%     -    3s
     0     0 467919.907    0  356 501319.000 467919.907  6.66%     -    3s
     0     0 469585.721    0  336 501319.000 469585.721  6.33%     -    3s
     0     0 469605.808    0  340 501319.000 469605.808  6.33%     -    3s
     0     0 469912.055    0  317 501319.000 469912.055  6.26%     -    3s
     0     0 469912.055    0  317 501319.000 469912.055  6.26%     -    3s
     0     2 470074.374    0  310 501319.000 470074.374  6.23%     -    3s
H    9    12                    489436.00000 478506.486  2.23%   927    4s
H   30    14                    483157.00000 481020.157  0.44%   703    4s
H   32    13                    483155.00000 481020.157  0.44%   665    4s
H   34    13                    483149.00000 481020.157  0.44%   631    4s

Cutting planes:
  Cover: 4
  Clique: 48
  MIR: 77
  StrongCG: 32
  GUB cover: 74
  Zero half: 2
  RLT: 3

Explored 143 nodes (65044 simplex iterations) in 4.73 seconds (8.89 work units)
Thread count was 8 (of 8 available processors)

Solution count 10: 483149 483155 483157 ... 609788

Optimal solution found (tolerance 1.00e-04)
Best objective 4.831490000000e+05, best bound 4.831490000000e+05, gap 0.0000%
